<?xml version="1.0" encoding="UTF-8"?><osil xmlns="os.optimizationservices.org"   xmlns:xsi="http://www.w3.org/2001/XMLSchema-instance" xsi:schemaLocation="os.optimizationservices.org http://www.optimizationservices.org/schemas/2.0/OSiL.xsd" ><instanceHeader><name>q_20_0_100_5</name></instanceHeader><instanceData><variables numberOfVariables="20"><var name="x1" ub="1"/><var name="x2" ub="1"/><var name="x3" ub="1"/><var name="x4" ub="1"/><var name="x5" ub="1"/><var name="x6" ub="1"/><var name="x7" ub="1"/><var name="x8" ub="1"/><var name="x9" ub="1"/><var name="x10" ub="1"/><var name="x11" ub="1"/><var name="x12" ub="1"/><var name="x13" ub="1"/><var name="x14" ub="1"/><var name="x15" ub="1"/><var name="x16" ub="1"/><var name="x17" ub="1"/><var name="x18" ub="1"/><var name="x19" ub="1"/><var name="x20" ub="1"/></variables><objectives numberOfObjectives="1"><obj maxOrMin="min" name="defObj_x21" numberOfObjCoef="20"><coef idx="0">.1609</coef><coef idx="1">4.63e-2</coef><coef idx="2">-4.9e-2</coef><coef idx="3">-.9321</coef><coef idx="4">.5337</coef><coef idx="5">.6369</coef><coef idx="6">-.8873</coef><coef idx="7">-.5746</coef><coef idx="8">.4865</coef><coef idx="9">-.3803</coef><coef idx="10">-.7699</coef><coef idx="11">.7363</coef><coef idx="12">-.2812</coef><coef idx="13">.8172</coef><coef idx="14">-.5754</coef><coef idx="15">-.2821</coef><coef idx="16">-.8113</coef><coef idx="17">.3038</coef><coef idx="18">.8093</coef><coef idx="19">.5277</coef></obj></objectives><quadraticCoefficients  numberOfQuadraticTerms="210" ><qTerm  idx="-1"  idxOne="0"  idxTwo="0"  coef=".4976"/><qTerm  idx="-1"  idxOne="0"  idxTwo="1"  coef=".6535"/><qTerm  idx="-1"  idxOne="0"  idxTwo="2"  coef="-.9917"/><qTerm  idx="-1"  idxOne="0"  idxTwo="3"  coef="-.5502"/><qTerm  idx="-1"  idxOne="0"  idxTwo="4"  coef="-.1718"/><qTerm  idx="-1"  idxOne="0"  idxTwo="5"  coef=".2573"/><qTerm  idx="-1"  idxOne="0"  idxTwo="6"  coef="-.9025"/><qTerm  idx="-1"  idxOne="0"  idxTwo="7"  coef=".3264"/><qTerm  idx="-1"  idxOne="0"  idxTwo="8"  coef="-.6443"/><qTerm  idx="-1"  idxOne="0"  idxTwo="9"  coef=".1642"/><qTerm  idx="-1"  idxOne="0"  idxTwo="10"  coef=".9221"/><qTerm  idx="-1"  idxOne="0"  idxTwo="11"  coef="-.428"/><qTerm  idx="-1"  idxOne="0"  idxTwo="12"  coef="-.4399"/><qTerm  idx="-1"  idxOne="0"  idxTwo="13"  coef=".7566"/><qTerm  idx="-1"  idxOne="0"  idxTwo="14"  coef=".354"/><qTerm  idx="-1"  idxOne="0"  idxTwo="15"  coef="-.5276"/><qTerm  idx="-1"  idxOne="0"  idxTwo="16"  coef="-.6272"/><qTerm  idx="-1"  idxOne="0"  idxTwo="17"  coef="-.8758"/><qTerm  idx="-1"  idxOne="0"  idxTwo="18"  coef="-.6662"/><qTerm  idx="-1"  idxOne="0"  idxTwo="19"  coef="-.5727"/><qTerm  idx="-1"  idxOne="1"  idxTwo="1"  coef="-.1467"/><qTerm  idx="-1"  idxOne="1"  idxTwo="2"  coef="-.8066"/><qTerm  idx="-1"  idxOne="1"  idxTwo="3"  coef="-.53"/><qTerm  idx="-1"  idxOne="1"  idxTwo="4"  coef="-.7406"/><qTerm  idx="-1"  idxOne="1"  idxTwo="5"  coef=".8858"/><qTerm  idx="-1"  idxOne="1"  idxTwo="6"  coef="-.3289"/><qTerm  idx="-1"  idxOne="1"  idxTwo="7"  coef="-.8604"/><qTerm  idx="-1"  idxOne="1"  idxTwo="8"  coef="-1.48e-2"/><qTerm  idx="-1"  idxOne="1"  idxTwo="9"  coef=".3933"/><qTerm  idx="-1"  idxOne="1"  idxTwo="10"  coef=".4846"/><qTerm  idx="-1"  idxOne="1"  idxTwo="11"  coef="-.7567"/><qTerm  idx="-1"  idxOne="1"  idxTwo="12"  coef="8.3e-2"/><qTerm  idx="-1"  idxOne="1"  idxTwo="13"  coef="-9.85e-2"/><qTerm  idx="-1"  idxOne="1"  idxTwo="14"  coef=".3703"/><qTerm  idx="-1"  idxOne="1"  idxTwo="15"  coef=".6679"/><qTerm  idx="-1"  idxOne="1"  idxTwo="16"  coef=".8643"/><qTerm  idx="-1"  idxOne="1"  idxTwo="17"  coef=".533"/><qTerm  idx="-1"  idxOne="1"  idxTwo="18"  coef=".1871"/><qTerm  idx="-1"  idxOne="1"  idxTwo="19"  coef="-.1905"/><qTerm  idx="-1"  idxOne="2"  idxTwo="2"  coef=".9994"/><qTerm  idx="-1"  idxOne="2"  idxTwo="3"  coef="-.7306"/><qTerm  idx="-1"  idxOne="2"  idxTwo="4"  coef="-.2797"/><qTerm  idx="-1"  idxOne="2"  idxTwo="5"  coef="-.7742"/><qTerm  idx="-1"  idxOne="2"  idxTwo="6"  coef=".2634"/><qTerm  idx="-1"  idxOne="2"  idxTwo="7"  coef="-.6882"/><qTerm  idx="-1"  idxOne="2"  idxTwo="8"  coef="-.1916"/><qTerm  idx="-1"  idxOne="2"  idxTwo="9"  coef="-.6292"/><qTerm  idx="-1"  idxOne="2"  idxTwo="10"  coef=".3706"/><qTerm  idx="-1"  idxOne="2"  idxTwo="11"  coef=".2252"/><qTerm  idx="-1"  idxOne="2"  idxTwo="12"  coef="-.5111"/><qTerm  idx="-1"  idxOne="2"  idxTwo="13"  coef="-.7106"/><qTerm  idx="-1"  idxOne="2"  idxTwo="14"  coef=".436"/><qTerm  idx="-1"  idxOne="2"  idxTwo="15"  coef=".6397"/><qTerm  idx="-1"  idxOne="2"  idxTwo="16"  coef="-.7626"/><qTerm  idx="-1"  idxOne="2"  idxTwo="17"  coef="-.7465"/><qTerm  idx="-1"  idxOne="2"  idxTwo="18"  coef="-.4273"/><qTerm  idx="-1"  idxOne="2"  idxTwo="19"  coef=".9735"/><qTerm  idx="-1"  idxOne="3"  idxTwo="3"  coef="-.5091"/><qTerm  idx="-1"  idxOne="3"  idxTwo="4"  coef="-2.17e-2"/><qTerm  idx="-1"  idxOne="3"  idxTwo="5"  coef="-.9406"/><qTerm  idx="-1"  idxOne="3"  idxTwo="6"  coef="-.5301"/><qTerm  idx="-1"  idxOne="3"  idxTwo="7"  coef="-9.25e-2"/><qTerm  idx="-1"  idxOne="3"  idxTwo="8"  coef="-.4232"/><qTerm  idx="-1"  idxOne="3"  idxTwo="9"  coef=".4301"/><qTerm  idx="-1"  idxOne="3"  idxTwo="10"  coef="-.1282"/><qTerm  idx="-1"  idxOne="3"  idxTwo="11"  coef=".2232"/><qTerm  idx="-1"  idxOne="3"  idxTwo="12"  coef=".124"/><qTerm  idx="-1"  idxOne="3"  idxTwo="13"  coef="-.3137"/><qTerm  idx="-1"  idxOne="3"  idxTwo="14"  coef=".5432"/><qTerm  idx="-1"  idxOne="3"  idxTwo="15"  coef="-3.7e-3"/><qTerm  idx="-1"  idxOne="3"  idxTwo="16"  coef="-9.24e-2"/><qTerm  idx="-1"  idxOne="3"  idxTwo="17"  coef=".3913"/><qTerm  idx="-1"  idxOne="3"  idxTwo="18"  coef="-.6371"/><qTerm  idx="-1"  idxOne="3"  idxTwo="19"  coef="-.1172"/><qTerm  idx="-1"  idxOne="4"  idxTwo="4"  coef="-.1265"/><qTerm  idx="-1"  idxOne="4"  idxTwo="5"  coef="-.8825"/><qTerm  idx="-1"  idxOne="4"  idxTwo="6"  coef="-.2623"/><qTerm  idx="-1"  idxOne="4"  idxTwo="7"  coef="-.1383"/><qTerm  idx="-1"  idxOne="4"  idxTwo="8"  coef="-.6027"/><qTerm  idx="-1"  idxOne="4"  idxTwo="9"  coef="-.21"/><qTerm  idx="-1"  idxOne="4"  idxTwo="10"  coef="-.5062"/><qTerm  idx="-1"  idxOne="4"  idxTwo="11"  coef="-.8757"/><qTerm  idx="-1"  idxOne="4"  idxTwo="12"  coef=".8153"/><qTerm  idx="-1"  idxOne="4"  idxTwo="13"  coef="3.95e-2"/><qTerm  idx="-1"  idxOne="4"  idxTwo="14"  coef="-.8308"/><qTerm  idx="-1"  idxOne="4"  idxTwo="15"  coef="-.2081"/><qTerm  idx="-1"  idxOne="4"  idxTwo="16"  coef="-.797"/><qTerm  idx="-1"  idxOne="4"  idxTwo="17"  coef="-.9042"/><qTerm  idx="-1"  idxOne="4"  idxTwo="18"  coef="-.5208"/><qTerm  idx="-1"  idxOne="4"  idxTwo="19"  coef=".2869"/><qTerm  idx="-1"  idxOne="5"  idxTwo="5"  coef="9.77e-2"/><qTerm  idx="-1"  idxOne="5"  idxTwo="6"  coef="-.6313"/><qTerm  idx="-1"  idxOne="5"  idxTwo="7"  coef="-.1462"/><qTerm  idx="-1"  idxOne="5"  idxTwo="8"  coef=".2552"/><qTerm  idx="-1"  idxOne="5"  idxTwo="9"  coef="-.8255"/><qTerm  idx="-1"  idxOne="5"  idxTwo="10"  coef="7.42e-2"/><qTerm  idx="-1"  idxOne="5"  idxTwo="11"  coef=".6895"/><qTerm  idx="-1"  idxOne="5"  idxTwo="12"  coef="-.181"/><qTerm  idx="-1"  idxOne="5"  idxTwo="13"  coef="-.5937"/><qTerm  idx="-1"  idxOne="5"  idxTwo="14"  coef=".6543"/><qTerm  idx="-1"  idxOne="5"  idxTwo="15"  coef=".9317"/><qTerm  idx="-1"  idxOne="5"  idxTwo="16"  coef="-.2445"/><qTerm  idx="-1"  idxOne="5"  idxTwo="17"  coef=".2943"/><qTerm  idx="-1"  idxOne="5"  idxTwo="18"  coef=".3555"/><qTerm  idx="-1"  idxOne="5"  idxTwo="19"  coef="-.1086"/><qTerm  idx="-1"  idxOne="6"  idxTwo="6"  coef="-.6558"/><qTerm  idx="-1"  idxOne="6"  idxTwo="7"  coef="-.296"/><qTerm  idx="-1"  idxOne="6"  idxTwo="8"  coef="-.3417"/><qTerm  idx="-1"  idxOne="6"  idxTwo="9"  coef=".4937"/><qTerm  idx="-1"  idxOne="6"  idxTwo="10"  coef="-.457"/><qTerm  idx="-1"  idxOne="6"  idxTwo="11"  coef=".1226"/><qTerm  idx="-1"  idxOne="6"  idxTwo="12"  coef="-.7351"/><qTerm  idx="-1"  idxOne="6"  idxTwo="13"  coef=".5968"/><qTerm  idx="-1"  idxOne="6"  idxTwo="14"  coef="-.5881"/><qTerm  idx="-1"  idxOne="6"  idxTwo="15"  coef="-.9469"/><qTerm  idx="-1"  idxOne="6"  idxTwo="16"  coef="-.6075"/><qTerm  idx="-1"  idxOne="6"  idxTwo="17"  coef="-.9843"/><qTerm  idx="-1"  idxOne="6"  idxTwo="18"  coef=".6435"/><qTerm  idx="-1"  idxOne="6"  idxTwo="19"  coef=".8889"/><qTerm  idx="-1"  idxOne="7"  idxTwo="7"  coef="-6.4e-2"/><qTerm  idx="-1"  idxOne="7"  idxTwo="8"  coef="-.7728"/><qTerm  idx="-1"  idxOne="7"  idxTwo="9"  coef="-.679"/><qTerm  idx="-1"  idxOne="7"  idxTwo="10"  coef=".6905"/><qTerm  idx="-1"  idxOne="7"  idxTwo="11"  coef=".7074"/><qTerm  idx="-1"  idxOne="7"  idxTwo="12"  coef="-.3972"/><qTerm  idx="-1"  idxOne="7"  idxTwo="13"  coef="-.4977"/><qTerm  idx="-1"  idxOne="7"  idxTwo="14"  coef="-.5983"/><qTerm  idx="-1"  idxOne="7"  idxTwo="15"  coef="-.4784"/><qTerm  idx="-1"  idxOne="7"  idxTwo="16"  coef="-.4858"/><qTerm  idx="-1"  idxOne="7"  idxTwo="17"  coef=".2572"/><qTerm  idx="-1"  idxOne="7"  idxTwo="18"  coef="-5.21e-2"/><qTerm  idx="-1"  idxOne="7"  idxTwo="19"  coef=".7398"/><qTerm  idx="-1"  idxOne="8"  idxTwo="8"  coef=".2972"/><qTerm  idx="-1"  idxOne="8"  idxTwo="9"  coef=".7789"/><qTerm  idx="-1"  idxOne="8"  idxTwo="10"  coef=".5905"/><qTerm  idx="-1"  idxOne="8"  idxTwo="11"  coef=".7603"/><qTerm  idx="-1"  idxOne="8"  idxTwo="12"  coef="-.5705"/><qTerm  idx="-1"  idxOne="8"  idxTwo="13"  coef=".9037"/><qTerm  idx="-1"  idxOne="8"  idxTwo="14"  coef=".4382"/><qTerm  idx="-1"  idxOne="8"  idxTwo="15"  coef="-.7787"/><qTerm  idx="-1"  idxOne="8"  idxTwo="16"  coef=".9149"/><qTerm  idx="-1"  idxOne="8"  idxTwo="17"  coef=".2939"/><qTerm  idx="-1"  idxOne="8"  idxTwo="18"  coef=".1637"/><qTerm  idx="-1"  idxOne="8"  idxTwo="19"  coef="-.9742"/><qTerm  idx="-1"  idxOne="9"  idxTwo="9"  coef="-.4477"/><qTerm  idx="-1"  idxOne="9"  idxTwo="10"  coef=".6009"/><qTerm  idx="-1"  idxOne="9"  idxTwo="11"  coef="-.3442"/><qTerm  idx="-1"  idxOne="9"  idxTwo="12"  coef=".1588"/><qTerm  idx="-1"  idxOne="9"  idxTwo="13"  coef="-.9521"/><qTerm  idx="-1"  idxOne="9"  idxTwo="14"  coef=".3398"/><qTerm  idx="-1"  idxOne="9"  idxTwo="15"  coef="-.6371"/><qTerm  idx="-1"  idxOne="9"  idxTwo="16"  coef="-.4268"/><qTerm  idx="-1"  idxOne="9"  idxTwo="17"  coef=".3169"/><qTerm  idx="-1"  idxOne="9"  idxTwo="18"  coef=".1779"/><qTerm  idx="-1"  idxOne="9"  idxTwo="19"  coef="-.8726"/><qTerm  idx="-1"  idxOne="10"  idxTwo="10"  coef="-.7344"/><qTerm  idx="-1"  idxOne="10"  idxTwo="11"  coef=".4833"/><qTerm  idx="-1"  idxOne="10"  idxTwo="12"  coef="7.e-4"/><qTerm  idx="-1"  idxOne="10"  idxTwo="13"  coef="-.9371"/><qTerm  idx="-1"  idxOne="10"  idxTwo="14"  coef=".9815"/><qTerm  idx="-1"  idxOne="10"  idxTwo="15"  coef="-.9932"/><qTerm  idx="-1"  idxOne="10"  idxTwo="16"  coef=".3986"/><qTerm  idx="-1"  idxOne="10"  idxTwo="17"  coef=".5181"/><qTerm  idx="-1"  idxOne="10"  idxTwo="18"  coef="-.4916"/><qTerm  idx="-1"  idxOne="10"  idxTwo="19"  coef="-.3371"/><qTerm  idx="-1"  idxOne="11"  idxTwo="11"  coef=".1457"/><qTerm  idx="-1"  idxOne="11"  idxTwo="12"  coef=".9832"/><qTerm  idx="-1"  idxOne="11"  idxTwo="13"  coef="-2.07e-2"/><qTerm  idx="-1"  idxOne="11"  idxTwo="14"  coef=".1223"/><qTerm  idx="-1"  idxOne="11"  idxTwo="15"  coef=".2128"/><qTerm  idx="-1"  idxOne="11"  idxTwo="16"  coef="-.8286"/><qTerm  idx="-1"  idxOne="11"  idxTwo="17"  coef="-.4837"/><qTerm  idx="-1"  idxOne="11"  idxTwo="18"  coef="-5.92e-2"/><qTerm  idx="-1"  idxOne="11"  idxTwo="19"  coef=".6266"/><qTerm  idx="-1"  idxOne="12"  idxTwo="12"  coef=".4492"/><qTerm  idx="-1"  idxOne="12"  idxTwo="13"  coef=".9861"/><qTerm  idx="-1"  idxOne="12"  idxTwo="14"  coef="-.8687"/><qTerm  idx="-1"  idxOne="12"  idxTwo="15"  coef="-.8504"/><qTerm  idx="-1"  idxOne="12"  idxTwo="16"  coef=".6624"/><qTerm  idx="-1"  idxOne="12"  idxTwo="17"  coef="-.1745"/><qTerm  idx="-1"  idxOne="12"  idxTwo="18"  coef=".3241"/><qTerm  idx="-1"  idxOne="12"  idxTwo="19"  coef="-.4919"/><qTerm  idx="-1"  idxOne="13"  idxTwo="13"  coef="-3.39e-2"/><qTerm  idx="-1"  idxOne="13"  idxTwo="14"  coef=".2248"/><qTerm  idx="-1"  idxOne="13"  idxTwo="15"  coef=".366"/><qTerm  idx="-1"  idxOne="13"  idxTwo="16"  coef="-.1987"/><qTerm  idx="-1"  idxOne="13"  idxTwo="17"  coef="-.5784"/><qTerm  idx="-1"  idxOne="13"  idxTwo="18"  coef=".8198"/><qTerm  idx="-1"  idxOne="13"  idxTwo="19"  coef="-4.86e-2"/><qTerm  idx="-1"  idxOne="14"  idxTwo="14"  coef=".7126"/><qTerm  idx="-1"  idxOne="14"  idxTwo="15"  coef=".8337"/><qTerm  idx="-1"  idxOne="14"  idxTwo="16"  coef="3.08e-2"/><qTerm  idx="-1"  idxOne="14"  idxTwo="17"  coef=".4378"/><qTerm  idx="-1"  idxOne="14"  idxTwo="18"  coef="-.4249"/><qTerm  idx="-1"  idxOne="14"  idxTwo="19"  coef="-.876"/><qTerm  idx="-1"  idxOne="15"  idxTwo="15"  coef="-.247"/><qTerm  idx="-1"  idxOne="15"  idxTwo="16"  coef="-.482"/><qTerm  idx="-1"  idxOne="15"  idxTwo="17"  coef="8.08e-2"/><qTerm  idx="-1"  idxOne="15"  idxTwo="18"  coef="6.87e-2"/><qTerm  idx="-1"  idxOne="15"  idxTwo="19"  coef="-.9379"/><qTerm  idx="-1"  idxOne="16"  idxTwo="16"  coef="-.1556"/><qTerm  idx="-1"  idxOne="16"  idxTwo="17"  coef="-.1534"/><qTerm  idx="-1"  idxOne="16"  idxTwo="18"  coef=".2972"/><qTerm  idx="-1"  idxOne="16"  idxTwo="19"  coef="-.682"/><qTerm  idx="-1"  idxOne="17"  idxTwo="17"  coef="-.2246"/><qTerm  idx="-1"  idxOne="17"  idxTwo="18"  coef=".2078"/><qTerm  idx="-1"  idxOne="17"  idxTwo="19"  coef="8.01e-2"/><qTerm  idx="-1"  idxOne="18"  idxTwo="18"  coef=".412"/><qTerm  idx="-1"  idxOne="18"  idxTwo="19"  coef="-.7653"/><qTerm  idx="-1"  idxOne="19"  idxTwo="19"  coef=".7097"/></quadraticCoefficients></instanceData></osil>
